; SWAP3 ADD SWAP2 SWAP1 SWAP2 => SWAP2 SWAP3 ADD
(set-option :produce-proofs true)
; 
(set-info :status unknown)
(declare-fun storage_t ((_ BitVec 256) (_ BitVec 256) (_ BitVec 256) (_ BitVec 256) Int (_ BitVec 256)) (_ BitVec 256))
(declare-fun storage_s ((_ BitVec 256) (_ BitVec 256) (_ BitVec 256) (_ BitVec 256) Int (_ BitVec 256)) (_ BitVec 256))
(declare-fun exc_halt_t (Int) Bool)
(declare-fun exc_halt_s (Int) Bool)
(declare-fun stack_t ((_ BitVec 256) (_ BitVec 256) (_ BitVec 256) (_ BitVec 256) Int (_ BitVec 6)) (_ BitVec 256))
(declare-fun stack_s ((_ BitVec 256) (_ BitVec 256) (_ BitVec 256) (_ BitVec 256) Int (_ BitVec 6)) (_ BitVec 256))
(declare-fun sc_t (Int) (_ BitVec 6))
(declare-fun sc_s (Int) (_ BitVec 6))
(declare-fun used_gas_t ((_ BitVec 256) (_ BitVec 256) (_ BitVec 256) (_ BitVec 256) Int) Int)
(declare-fun used_gas_s ((_ BitVec 256) (_ BitVec 256) (_ BitVec 256) (_ BitVec 256) Int) Int)
(assert
 (exists ((x_0 (_ BitVec 256)) (x_1 (_ BitVec 256)) (x_2 (_ BitVec 256)) (x_3 (_ BitVec 256)) )(let (($x2683 (forall ((w (_ BitVec 256)) )(let ((?x37 (storage_t x_0 x_1 x_2 x_3 3 w)))
 (let ((?x2070 (storage_s x_0 x_1 x_2 x_3 5 w)))
 (= ?x2070 ?x37))))
 ))
 (let (($x6783 (exc_halt_t 3)))
 (let (($x11317 (exc_halt_s 5)))
 (let (($x11613 (= $x11317 $x6783)))
 (let (($x8493 (forall ((n (_ BitVec 6)) )(let ((?x6430 (stack_t x_0 x_1 x_2 x_3 3 n)))
 (let ((?x4184 (stack_s x_0 x_1 x_2 x_3 5 n)))
 (let (($x9634 (= ?x4184 ?x6430)))
 (let ((?x6438 (sc_t 3)))
 (let (($x1457 (bvsle ?x6438 n)))
 (or $x1457 $x9634)))))))
 ))
 (let ((?x6438 (sc_t 3)))
 (let ((?x4319 (sc_s 5)))
 (let (($x7281 (= ?x4319 ?x6438)))
 (let ((?x9689 (used_gas_t x_0 x_1 x_2 x_3 0)))
 (let ((?x9000 (used_gas_s x_0 x_1 x_2 x_3 0)))
 (let (($x11591 (= ?x9000 ?x9689)))
 (let (($x5862 (forall ((w (_ BitVec 256)) )(let ((?x4468 (storage_t x_0 x_1 x_2 x_3 0 w)))
 (let ((?x3332 (storage_s x_0 x_1 x_2 x_3 0 w)))
 (= ?x3332 ?x4468))))
 ))
 (let (($x56 (exc_halt_t 0)))
 (let (($x57 (exc_halt_s 0)))
 (let (($x58 (= $x57 $x56)))
 (let (($x3268 (forall ((n (_ BitVec 6)) )(let ((?x7049 (stack_t x_0 x_1 x_2 x_3 0 n)))
 (let ((?x9786 (stack_s x_0 x_1 x_2 x_3 0 n)))
 (let (($x11522 (= ?x9786 ?x7049)))
 (let ((?x63 (sc_t 0)))
 (let (($x3267 (bvsle ?x63 n)))
 (or $x3267 $x11522)))))))
 ))
 (let ((?x63 (sc_t 0)))
 (let ((?x72 (sc_s 0)))
 (let (($x73 (= ?x72 ?x63)))
 (let (($x2593 (= $x6783 (or (exc_halt_t 2) (not (bvsle (_ bv0 6) (bvadd (_ bv62 6) (sc_t 2))))))))
 (let (($x7332 (forall ((w (_ BitVec 256)) )(let ((?x307 (storage_t x_0 x_1 x_2 x_3 2 w)))
 (let ((?x37 (storage_t x_0 x_1 x_2 x_3 3 w)))
 (= ?x37 ?x307))))
 ))
 (let (($x6813 (forall ((n (_ BitVec 6)) )(let ((?x6945 (stack_t x_0 x_1 x_2 x_3 2 n)))
 (let ((?x6430 (stack_t x_0 x_1 x_2 x_3 3 n)))
 (let (($x4249 (= ?x6430 ?x6945)))
 (let ((?x2714 (sc_t 2)))
 (let ((?x875 (bvadd (_ bv62 6) ?x2714)))
 (let (($x1192 (bvsle ?x875 n)))
 (or $x1192 $x4249))))))))
 ))
 (let ((?x2714 (sc_t 2)))
 (let ((?x5743 (bvadd (_ bv63 6) ?x2714)))
 (let (($x4717 (= ?x6438 ?x5743)))
 (let ((?x2731 (used_gas_t x_0 x_1 x_2 x_3 3)))
 (let (($x9447 (= ?x2731 (+ 3 (used_gas_t x_0 x_1 x_2 x_3 2)))))
 (let ((?x875 (bvadd (_ bv62 6) ?x2714)))
 (let ((?x10102 (stack_t x_0 x_1 x_2 x_3 2 ?x875)))
 (let ((?x8112 (stack_t x_0 x_1 x_2 x_3 2 ?x5743)))
 (let ((?x11838 (bvadd (_ bv63 6) ?x6438)))
 (let ((?x7486 (stack_t x_0 x_1 x_2 x_3 3 ?x11838)))
 (let (($x5252 (exc_halt_t 2)))
 (let (($x8430 (= $x5252 (or (exc_halt_t 1) (not (bvsle (_ bv0 6) (bvadd (_ bv60 6) (sc_t 1))))))))
 (let (($x4381 (forall ((w (_ BitVec 256)) )(let ((?x10790 (storage_t x_0 x_1 x_2 x_3 1 w)))
 (let ((?x307 (storage_t x_0 x_1 x_2 x_3 2 w)))
 (= ?x307 ?x10790))))
 ))
 (let (($x2247 (forall ((n (_ BitVec 6)) )(let ((?x10141 (stack_t x_0 x_1 x_2 x_3 1 n)))
 (let ((?x6945 (stack_t x_0 x_1 x_2 x_3 2 n)))
 (let (($x10210 (= ?x6945 ?x10141)))
 (or (bvsle (bvadd (_ bv60 6) (sc_t 1)) n) $x10210)))))
 ))
 (let ((?x8347 (sc_t 1)))
 (let (($x10676 (= ?x2714 ?x8347)))
 (let ((?x3703 (used_gas_t x_0 x_1 x_2 x_3 2)))
 (let (($x10321 (= ?x3703 (+ 3 (used_gas_t x_0 x_1 x_2 x_3 1)))))
 (let ((?x8567 (bvadd (_ bv61 6) ?x8347)))
 (let ((?x7524 (stack_t x_0 x_1 x_2 x_3 1 ?x8567)))
 (let ((?x7020 (bvadd (_ bv61 6) ?x2714)))
 (let ((?x2362 (stack_t x_0 x_1 x_2 x_3 2 ?x7020)))
 (let ((?x401 (bvadd (_ bv63 6) ?x8347)))
 (let ((?x8956 (stack_t x_0 x_1 x_2 x_3 1 ?x401)))
 (let ((?x10447 (bvadd (_ bv60 6) ?x2714)))
 (let ((?x7547 (stack_t x_0 x_1 x_2 x_3 2 ?x10447)))
 (let (($x6210 (forall ((w (_ BitVec 256)) )(let ((?x4468 (storage_t x_0 x_1 x_2 x_3 0 w)))
 (let ((?x10790 (storage_t x_0 x_1 x_2 x_3 1 w)))
 (= ?x10790 ?x4468))))
 ))
 (let (($x1657 (forall ((n (_ BitVec 6)) )(let ((?x7049 (stack_t x_0 x_1 x_2 x_3 0 n)))
 (let ((?x10141 (stack_t x_0 x_1 x_2 x_3 1 n)))
 (let (($x3550 (= ?x10141 ?x7049)))
 (or $x3550 (bvsle (bvadd (_ bv61 6) (sc_t 0)) n))))))
 ))
 (let (($x2771 (= ?x8347 ?x63)))
 (let ((?x8163 (used_gas_t x_0 x_1 x_2 x_3 1)))
 (let (($x8557 (= ?x8163 (+ 3 ?x9689))))
 (let ((?x4145 (bvadd (_ bv62 6) ?x63)))
 (let ((?x1021 (stack_t x_0 x_1 x_2 x_3 0 ?x4145)))
 (let ((?x6516 (bvadd (_ bv62 6) ?x8347)))
 (let ((?x10048 (stack_t x_0 x_1 x_2 x_3 1 ?x6516)))
 (let ((?x4604 (bvadd (_ bv61 6) ?x63)))
 (let ((?x11423 (stack_t x_0 x_1 x_2 x_3 0 ?x4604)))
 (let (($x9633 (= ?x8956 ?x11423)))
 (let (($x3769 (= $x11317 (or (exc_halt_s 4) (not (bvsle (_ bv0 6) (bvadd (_ bv61 6) (sc_s 4))))))))
 (let (($x127 (forall ((w (_ BitVec 256)) )(let ((?x1296 (storage_s x_0 x_1 x_2 x_3 4 w)))
 (let ((?x2070 (storage_s x_0 x_1 x_2 x_3 5 w)))
 (= ?x2070 ?x1296))))
 ))
 (let (($x4491 (forall ((n (_ BitVec 6)) )(let ((?x6762 (stack_s x_0 x_1 x_2 x_3 4 n)))
 (let ((?x4184 (stack_s x_0 x_1 x_2 x_3 5 n)))
 (let (($x2795 (= ?x4184 ?x6762)))
 (or $x2795 (bvsle (bvadd (_ bv61 6) (sc_s 4)) n))))))
 ))
 (let ((?x4305 (sc_s 4)))
 (let (($x1334 (= ?x4319 ?x4305)))
 (let (($x3747 (= (used_gas_s x_0 x_1 x_2 x_3 5) (+ 3 (used_gas_s x_0 x_1 x_2 x_3 4)))))
 (let ((?x10436 (bvadd (_ bv62 6) ?x4305)))
 (let ((?x4791 (stack_s x_0 x_1 x_2 x_3 4 ?x10436)))
 (let ((?x4449 (bvadd (_ bv62 6) ?x4319)))
 (let ((?x1872 (stack_s x_0 x_1 x_2 x_3 5 ?x4449)))
 (let ((?x4062 (bvadd (_ bv63 6) ?x4305)))
 (let ((?x3194 (stack_s x_0 x_1 x_2 x_3 4 ?x4062)))
 (let ((?x7318 (bvadd (_ bv63 6) ?x4319)))
 (let ((?x9794 (stack_s x_0 x_1 x_2 x_3 5 ?x7318)))
 (let (($x7172 (exc_halt_s 4)))
 (let (($x4030 (= $x7172 (or (exc_halt_s 3) (not (bvsle (_ bv0 6) (bvadd (_ bv62 6) (sc_s 3))))))))
 (let (($x3819 (forall ((w (_ BitVec 256)) )(let ((?x2079 (storage_s x_0 x_1 x_2 x_3 3 w)))
 (let ((?x1296 (storage_s x_0 x_1 x_2 x_3 4 w)))
 (= ?x1296 ?x2079))))
 ))
 (let (($x766 (forall ((n (_ BitVec 6)) )(let ((?x5230 (stack_s x_0 x_1 x_2 x_3 3 n)))
 (let ((?x6762 (stack_s x_0 x_1 x_2 x_3 4 n)))
 (let (($x11728 (= ?x6762 ?x5230)))
 (let ((?x275 (sc_s 3)))
 (let ((?x10732 (bvadd (_ bv62 6) ?x275)))
 (let (($x7977 (bvsle ?x10732 n)))
 (or $x7977 $x11728))))))))
 ))
 (let ((?x275 (sc_s 3)))
 (let (($x2388 (= ?x4305 ?x275)))
 (let ((?x5035 (used_gas_s x_0 x_1 x_2 x_3 4)))
 (let (($x1153 (= ?x5035 (+ 3 (used_gas_s x_0 x_1 x_2 x_3 3)))))
 (let (($x292 (exc_halt_s 3)))
 (let (($x1924 (= $x292 (or (exc_halt_s 2) (not (bvsle (_ bv0 6) (bvadd (_ bv61 6) (sc_s 2))))))))
 (let (($x8877 (forall ((w (_ BitVec 256)) )(let ((?x7953 (storage_s x_0 x_1 x_2 x_3 2 w)))
 (let ((?x2079 (storage_s x_0 x_1 x_2 x_3 3 w)))
 (= ?x2079 ?x7953))))
 ))
 (let (($x8727 (forall ((n (_ BitVec 6)) )(let ((?x218 (sc_s 2)))
 (let ((?x971 (bvadd (_ bv61 6) ?x218)))
 (let (($x4870 (bvsle ?x971 n)))
 (let ((?x7191 (stack_s x_0 x_1 x_2 x_3 2 n)))
 (let ((?x5230 (stack_s x_0 x_1 x_2 x_3 3 n)))
 (let (($x197 (= ?x5230 ?x7191)))
 (or $x197 $x4870))))))))
 ))
 (let ((?x218 (sc_s 2)))
 (let (($x11200 (= ?x275 ?x218)))
 (let ((?x2038 (used_gas_s x_0 x_1 x_2 x_3 3)))
 (let (($x10630 (= ?x2038 (+ 3 (used_gas_s x_0 x_1 x_2 x_3 2)))))
 (let ((?x2342 (bvadd (_ bv62 6) ?x218)))
 (let ((?x9723 (stack_s x_0 x_1 x_2 x_3 2 ?x2342)))
 (let ((?x10732 (bvadd (_ bv62 6) ?x275)))
 (let ((?x8275 (stack_s x_0 x_1 x_2 x_3 3 ?x10732)))
 (let ((?x4506 (bvadd (_ bv63 6) ?x218)))
 (let ((?x2191 (stack_s x_0 x_1 x_2 x_3 2 ?x4506)))
 (let ((?x10711 (bvadd (_ bv61 6) ?x275)))
 (let ((?x4147 (stack_s x_0 x_1 x_2 x_3 3 ?x10711)))
 (let ((?x6354 (bvadd (_ bv63 6) ?x275)))
 (let ((?x5594 (stack_s x_0 x_1 x_2 x_3 3 ?x6354)))
 (let (($x247 (exc_halt_s 2)))
 (let (($x7256 (= $x247 (or (exc_halt_s 1) (not (bvsle (_ bv0 6) (bvadd (_ bv62 6) (sc_s 1))))))))
 (let (($x9068 (forall ((w (_ BitVec 256)) )(let ((?x10950 (storage_s x_0 x_1 x_2 x_3 1 w)))
 (let ((?x7953 (storage_s x_0 x_1 x_2 x_3 2 w)))
 (= ?x7953 ?x10950))))
 ))
 (let (($x8940 (forall ((n (_ BitVec 6)) )(let ((?x154 (sc_s 1)))
 (let ((?x3833 (bvadd (_ bv62 6) ?x154)))
 (let (($x5468 (bvsle ?x3833 n)))
 (let ((?x2851 (stack_s x_0 x_1 x_2 x_3 1 n)))
 (let ((?x7191 (stack_s x_0 x_1 x_2 x_3 2 n)))
 (let (($x287 (= ?x7191 ?x2851)))
 (or $x287 $x5468))))))))
 ))
 (let ((?x154 (sc_s 1)))
 (let ((?x7858 (bvadd (_ bv63 6) ?x154)))
 (let (($x8772 (= ?x218 ?x7858)))
 (let ((?x5314 (used_gas_s x_0 x_1 x_2 x_3 2)))
 (let (($x11326 (= ?x5314 (+ 3 (used_gas_s x_0 x_1 x_2 x_3 1)))))
 (let ((?x3833 (bvadd (_ bv62 6) ?x154)))
 (let ((?x8432 (stack_s x_0 x_1 x_2 x_3 1 ?x3833)))
 (let ((?x11487 (stack_s x_0 x_1 x_2 x_3 1 ?x7858)))
 (let (($x3807 (forall ((w (_ BitVec 256)) )(let ((?x3332 (storage_s x_0 x_1 x_2 x_3 0 w)))
 (let ((?x10950 (storage_s x_0 x_1 x_2 x_3 1 w)))
 (= ?x10950 ?x3332))))
 ))
 (let (($x1555 (forall ((n (_ BitVec 6)) )(let ((?x9786 (stack_s x_0 x_1 x_2 x_3 0 n)))
 (let ((?x2851 (stack_s x_0 x_1 x_2 x_3 1 n)))
 (let (($x9979 (= ?x2851 ?x9786)))
 (or (bvsle (bvadd (_ bv60 6) (sc_s 0)) n) $x9979)))))
 ))
 (let (($x4998 (= ?x154 ?x72)))
 (let ((?x7040 (used_gas_s x_0 x_1 x_2 x_3 1)))
 (let (($x2857 (= ?x7040 (+ 3 ?x9000))))
 (let ((?x8494 (bvadd (_ bv61 6) ?x154)))
 (let ((?x10917 (stack_s x_0 x_1 x_2 x_3 1 ?x8494)))
 (let ((?x3071 (bvadd (_ bv63 6) ?x72)))
 (let ((?x8293 (stack_s x_0 x_1 x_2 x_3 0 ?x3071)))
 (let ((?x3392 (bvadd (_ bv60 6) ?x154)))
 (let ((?x7469 (stack_s x_0 x_1 x_2 x_3 1 ?x3392)))
 (let (($x8314 (forall ((w (_ BitVec 256)) )(let ((?x3332 (storage_s x_0 x_1 x_2 x_3 0 w)))
 (= ?x3332 (_ bv0 256))))
 ))
 (let (($x2537 (= ?x9000 0)))
 (let (($x2751 (not $x57)))
 (let (($x10373 (= (stack_s x_0 x_1 x_2 x_3 0 (_ bv3 6)) x_3)))
 (let (($x9975 (= (stack_s x_0 x_1 x_2 x_3 0 (_ bv2 6)) x_2)))
 (let (($x7851 (= (stack_s x_0 x_1 x_2 x_3 0 (_ bv1 6)) x_1)))
 (let (($x5834 (= (stack_s x_0 x_1 x_2 x_3 0 (_ bv0 6)) x_0)))
 (let (($x289 (= ?x72 (_ bv4 6))))
 (and $x289 $x5834 $x7851 $x9975 $x10373 $x2751 $x2537 $x8314 (= ?x11487 (stack_s x_0 x_1 x_2 x_3 0 (bvadd (_ bv60 6) ?x72))) (= ?x7469 ?x8293) (= ?x10917 (stack_s x_0 x_1 x_2 x_3 0 (bvadd (_ bv61 6) ?x72))) (= ?x8432 (stack_s x_0 x_1 x_2 x_3 0 (bvadd (_ bv62 6) ?x72))) $x2857 $x4998 $x1555 $x3807 (= (exc_halt_s 1) (or $x57 (not (bvsle (_ bv0 6) (bvadd (_ bv60 6) ?x72))))) (= ?x2191 (bvadd ?x11487 ?x8432)) $x11326 $x8772 $x8940 $x9068 $x7256 (= ?x5594 (stack_s x_0 x_1 x_2 x_3 2 (bvadd (_ bv61 6) ?x218))) (= ?x4147 ?x2191) (= ?x8275 ?x9723) $x10630 $x11200 $x8727 $x8877 $x1924 (= ?x3194 ?x8275) (= ?x4791 ?x5594) $x1153 $x2388 $x766 $x3819 $x4030 (= ?x9794 (stack_s x_0 x_1 x_2 x_3 4 (bvadd (_ bv61 6) ?x4305))) (= (stack_s x_0 x_1 x_2 x_3 5 (bvadd (_ bv61 6) ?x4319)) ?x3194) (= ?x1872 ?x4791) $x3747 $x1334 $x4491 $x127 $x3769 $x9633 (= ?x7524 (stack_t x_0 x_1 x_2 x_3 0 (bvadd (_ bv63 6) ?x63))) (= ?x10048 ?x1021) $x8557 $x2771 $x1657 $x6210 (= (exc_halt_t 1) (or $x56 (not (bvsle (_ bv0 6) ?x4604)))) (= ?x8112 (stack_t x_0 x_1 x_2 x_3 1 (bvadd (_ bv60 6) ?x8347))) (= ?x7547 ?x8956) (= ?x2362 ?x7524) (= ?x10102 ?x10048) $x10321 $x10676 $x2247 $x4381 $x8430 (= ?x7486 (bvadd ?x8112 ?x10102)) $x9447 $x4717 $x6813 $x7332 $x2593 $x73 $x3268 $x58 $x5862 $x11591 (not (and $x7281 $x8493 $x11613 $x2683)))))))))))))))))))))))))))))))))))))))))))))))))))))))))))))))))))))))))))))))))))))))))))))))))))))))))))))))))))))))))))))))))))))))
 )
(check-sat)
(get-proof)
